Traveling Salesman Problem/TSP_generados/Aleatorio1620391027_13.tsp
NAME: Aleatorio1620391027_13.tsp
COMMENT: Randomly generated scenario
TYPE: TSP
DIMENSION: 13
EDGE_WEIGHT_TYPE: ATT
NODE_COORD_SECTION
1 29.89 34.68
2 31.75 30.2
3 43.77 23.67
4 48.65 27.02
5 34.73 37.33
6 45.96 47.63
7 43.13 30.63
8 40.83 8.04
9 41.23 6.48
10 16.3 12.09
11 43.5 31.29
12 36.52 35.42
13 31.78 26.92
