Traveling Salesman Problem/TSP_generados/Aleatorio1620391027_13.opt.tour
NAME: Aleatorio1620391027_13.opt.tour
COMMENT: Optimal solution for Aleatorio1620391027_13 (126.00115074595678)
TYPE: TOUR
DIMENSION: 13
TOUR_SECTION
1 2 13 10 9 8 3 4 7 11 6 12 5
-1
EOF
